c preprocessed version of BN_82, 29 vertices, 287 edges
p td 29 287
1 0
2 0
14 0
7 0
1 2
1 9
6 1
11 1
5 1
7 1
10 1
2 3
6 2
5 2
15 2
7 2
4 3
17 3
4 5
4 6
4 8
4 11
12 4
13 4
14 4
4 15
7 4
16 4
10 4
17 4
5 6
8 5
11 5
12 5
13 5
14 5
15 5
7 5
16 5
10 5
17 5
7 6
17 6
7 8
7 9
7 12
7 14
7 17
7 16
7 10
8 9
8 11
13 8
14 8
15 8
16 8
10 8
17 8
10 9
10 11
10 12
10 13
10 14
10 15
16 10
10 17
12 11
13 11
14 11
15 11
16 11
17 11
12 13
12 14
12 15
16 12
17 12
13 14
13 15
16 13
17 13
14 15
16 14
17 14
16 15
17 15
16 17
18 17
18 12
18 13
18 23
18 14
18 24
18 4
18 26
18 15
18 27
18 22
18 0
18 25
18 19
18 3
18 2
18 7
18 9
18 1
18 6
18 5
18 8
18 28
18 11
18 21
18 20
18 16
18 10
19 17
19 22
19 25
19 3
19 9
19 6
19 2
19 7
19 28
19 21
19 5
19 16
19 10
19 20
19 12
19 23
19 14
19 24
19 26
19 27
20 28
20 22
20 21
20 5
20 4
20 8
20 11
20 12
20 13
20 14
20 15
20 23
20 24
20 25
20 26
20 7
20 16
20 10
20 27
20 17
21 28
21 22
21 2
21 3
21 9
21 5
21 8
21 11
21 12
21 13
21 14
21 15
21 23
21 24
21 25
21 26
21 7
21 16
21 10
21 27
22 28
22 0
22 8
22 14
22 23
22 24
22 25
22 26
22 7
22 16
22 27
23 28
23 17
23 12
23 13
23 25
23 3
23 2
23 7
23 9
23 1
23 6
23 24
23 4
23 26
23 27
23 8
23 11
23 14
23 5
23 16
23 15
23 10
24 28
24 17
24 12
24 13
24 14
24 25
24 3
24 7
24 6
24 4
24 26
24 27
24 8
24 11
24 5
24 16
24 15
24 10
25 28
25 17
25 0
25 3
25 9
25 6
25 1
25 2
25 7
25 8
25 5
25 16
25 10
25 12
25 14
25 26
25 15
25 27
26 28
26 17
26 12
26 13
26 14
26 4
26 3
26 2
26 7
26 6
26 27
26 8
26 11
26 5
26 16
26 15
26 10
27 28
27 7
27 16
27 10
27 17
27 12
27 13
27 14
27 4
27 15
27 3
27 2
27 9
27 8
27 11
27 5
28 0
28 5
28 8
28 11
28 13
28 14
28 15
28 7
28 16
28 10
